<number of tasks>
50

<cycle time>
1000

<order strength>
0.199


<task times>
1 424
2 514
3 533
4 456
5 646
6 747
7 436
8 562
9 533
10 512
11 582
12 358
13 465
14 574
15 460
16 246
17 536
18 439
19 569
20 471
21 675
22 384
23 800
24 434
25 467
26 430
27 247
28 479
29 603
30 484
31 520
32 340
33 470
34 576
35 560
36 554
37 567
38 399
39 641
40 712
41 613
42 480
43 582
44 361
45 447
46 432
47 407
48 484
49 555
50 471

<precedence relations>
1,15
2,8
2,10
2,12
2,14
3,11
3,14
4,17
5,37
5,48
6,9
6,13
7,10
7,43
8,16
9,19
10,16
12,17
13,18
14,18
15,20
15,31
16,23
16,29
16,47
17,42
18,26
19,22
19,25
19,27
20,21
20,24
20,28
23,46
25,34
26,30
26,33
26,35
27,31
27,32
28,36
28,37
29,38
30,40
31,39
32,38
32,41
36,49
37,42
38,46
40,45
41,43
41,44
42,47
43,49
45,48
46,50
47,49

<end>
